
Welcome to IBM(R) ILOG(R) CPLEX(R) Interactive Optimizer 22.1.1.0
  with Simplex, Mixed Integer & Barrier Optimizers
5725-A06 5725-A29 5724-Y48 5724-Y49 5724-Y54 5724-Y55 5655-Y21
Copyright IBM Corp. 1988, 2022.  All Rights Reserved.

Type 'help' for a list of available commands.
Type 'help' followed by a command name for more
information on commands.

CPLEX> Selected objective sense:  MINIMIZE
Selected objective  name:  00000000
Selected RHS        name:  RHS1
Selected bound      name:  BOUND
Problem 'ee.mps' read.
Read time = 0.03 sec. (3.17 ticks)
CPLEX> New value for time limit in seconds: 7200
CPLEX> New value for parallel optimization mode: -1
CPLEX> New value for default parallel thread count: 40
CPLEX> New value for mixed integer optimality gap tolerance: 1e-13
CPLEX> Version identifier: 22.1.1.0 | 2022-11-28 | 9160aff4d
CPXPARAM_Threads                                 40
CPXPARAM_Parallel                                -1
CPXPARAM_TimeLimit                               7200
CPXPARAM_MIP_Tolerances_MIPGap                   1e-13
Found incumbent of value 0.000000 after 0.00 sec. (0.31 ticks)
Tried aggregator 2 times.
MIP Presolve eliminated 183 rows and 2745 columns.
MIP Presolve modified 6090 coefficients.
Aggregator did 713 substitutions.
Reduced MIP has 3636 rows, 7840 columns, and 28954 nonzeros.
Reduced MIP has 7840 binaries, 0 generals, 0 SOSs, and 0 indicators.
Presolve time = 0.08 sec. (69.13 ticks)
Probing time = 0.03 sec. (5.33 ticks)
Tried aggregator 1 time.
Detecting symmetries...
Reduced MIP has 3636 rows, 7840 columns, and 28954 nonzeros.
Reduced MIP has 7840 binaries, 0 generals, 0 SOSs, and 0 indicators.
Presolve time = 0.03 sec. (22.09 ticks)
Probing time = 0.02 sec. (5.12 ticks)
Clique table members: 18788.
MIP emphasis: balance optimality and feasibility.
MIP search method: dynamic search.
Parallel mode: opportunistic, using up to 40 threads.
Root relaxation solution time = 0.16 sec. (137.29 ticks)

        Nodes                                         Cuts/
   Node  Left     Objective  IInf  Best Integer    Best Bound    ItCnt     Gap

*     0+    0                            0.0000  -1.54000e+13              --- 
*     0+    0                      -5.79000e+12  -1.54000e+13           165.98%
      0     0  -1.53900e+13    88  -5.79000e+12  -1.53900e+13     2953  165.80%
*     0+    0                      -1.53900e+13  -1.53900e+13             0.00%
      0     0  -1.53900e+13   227  -1.53900e+13      Cuts: 81     4562    0.00%
      0     0  -1.53900e+13   183  -1.53900e+13      Cuts: 90     5277    0.00%
*     0+    0                      -1.53900e+13  -1.53900e+13             0.00%
*     0+    0                      -1.53900e+13  -1.53900e+13             0.00%

Repeating presolve.
Tried aggregator 3 times.
MIP Presolve eliminated 2660 rows and 6172 columns.
MIP Presolve added 78 rows and 0 columns.
MIP Presolve modified 157 coefficients.
Aggregator did 610 substitutions.
Reduced MIP has 444 rows, 1001 columns, and 3494 nonzeros.
Reduced MIP has 1001 binaries, 0 generals, 0 SOSs, and 0 indicators.
Presolve time = 0.02 sec. (23.92 ticks)
Probing fixed 6 vars, tightened 0 bounds.
Probing time = 0.00 sec. (2.97 ticks)
Tried aggregator 1 time.
MIP Presolve eliminated 6 rows and 11 columns.
Reduced MIP has 438 rows, 990 columns, and 3459 nonzeros.
Reduced MIP has 990 binaries, 0 generals, 0 SOSs, and 0 indicators.
Presolve time = 0.00 sec. (2.00 ticks)
Probing time = 0.00 sec. (2.60 ticks)
Tried aggregator 1 time.
Detecting symmetries...
Reduced MIP has 438 rows, 990 columns, and 3459 nonzeros.
Reduced MIP has 990 binaries, 0 generals, 0 SOSs, and 0 indicators.
Presolve time = 0.00 sec. (2.56 ticks)
Represolve time = 0.05 sec. (52.02 ticks)
Probing time = 0.00 sec. (2.60 ticks)
Clique table members: 2316.
MIP emphasis: balance optimality and feasibility.
MIP search method: dynamic search.
Parallel mode: opportunistic, using up to 40 threads.
Root relaxation solution time = 0.01 sec. (10.09 ticks)

        Nodes                                         Cuts/
   Node  Left     Objective  IInf  Best Integer    Best Bound    ItCnt     Gap

*     0+    0                      -1.53900e+13  -1.53900e+13             0.00%
      0     0  -1.53900e+13    67  -1.53900e+13  -1.53900e+13     5770    0.00%
      0     0  -1.53900e+13    95  -1.53900e+13      Cuts: 73     5909    0.00%
      0     0  -1.53900e+13    87  -1.53900e+13      Cuts: 57     6006    0.00%
      0     0  -1.53900e+13   102  -1.53900e+13      Cuts: 53     6087    0.00%
*     0+    0                      -1.53900e+13  -1.53900e+13             0.00%
      0     2  -1.53900e+13    86  -1.53900e+13  -1.53900e+13     6087    0.00%
Elapsed time = 1.80 sec. (1348.14 ticks, tree = 0.02 MB, solutions = 10)

GUB cover cuts applied:  1
Clique cuts applied:  29
Cover cuts applied:  106
Flow cuts applied:  1
Mixed integer rounding cuts applied:  9
Zero-half cuts applied:  20
Lift and project cuts applied:  10
Gomory fractional cuts applied:  17

Root node processing (before b&c):
  Real time             =    1.56 sec. (1348.55 ticks)
Parallel b&c, 40 threads:
  Real time             =    0.44 sec. (36.59 ticks)
  Sync time (average)   =    0.22 sec.
  Wait time (average)   =    0.00 sec.
                          ------------
Total (root+branch&cut) =    2.00 sec. (1385.14 ticks)

Solution pool: 10 solutions saved.

MIP - Integer optimal solution:  Objective = -1.5389999488e+13
Solution time =    2.05 sec.  Iterations = 16596  Nodes = 346
Deterministic time = 1385.17 ticks  (676.53 ticks/sec)

CPLEX> Solution 'p11' written to file 'ee.sol'.
CPLEX> 